LengthSchedulingHorizon=10081;
nAttributes=2;
SetupCosts=[[0, 0], [20, 6], [1, 21]];
SetupTimes=[[0, 0], [2, 8], [1, 18]];
nMachines=2;
MinCap=[0, 0];
MaxCap=[30, 90];

initState=[1, 2];
nShifts=4;
ShiftStartTimes = [[332, 1032, 1428, 3501], [324, 4071, 4350, 7378]];
ShiftEndTimes = [[922, 1350, 3180, 10015], [3448, 4317, 6945, 9682]];
nJobs=100;
EligibleMachines = [{2}, {1}, {1, 2}, {1}, {1, 2}, {1, 2}, {2}, {1}, {2}, {2}, {1}, {1}, {2}, {1}, {1, 2}, {2}, {1, 2}, {1, 2}, {1, 2}, {1, 2}, {1, 2}, {1}, {1, 2}, {1, 2}, {2}, {1}, {1, 2}, {1, 2}, {1, 2}, {1}, {1, 2}, {1, 2}, {1}, {1, 2}, {1}, {1, 2}, {1, 2}, {1, 2}, {1, 2}, {1, 2}, {1, 2}, {1, 2}, {1, 2}, {1}, {1, 2}, {1}, {2}, {1, 2}, {2}, {2}, {2}, {1}, {1}, {2}, {2}, {1}, {1, 2}, {1}, {2}, {1, 2}, {1, 2}, {2}, {2}, {1, 2}, {1, 2}, {1, 2}, {1, 2}, {1, 2}, {1}, {2}, {1, 2}, {1, 2}, {2}, {1}, {1, 2}, {1, 2}, {2}, {2}, {1, 2}, {1, 2}, {1}, {1}, {1}, {2}, {1, 2}, {1, 2}, {1, 2}, {1, 2}, {1, 2}, {1, 2}, {2}, {2}, {1, 2}, {1}, {2}, {1, 2}, {2}, {1}, {2}, {2}];
EarliestStart=[224, 475, 193, 426, 234, 450, 329, 14, 511, 460, 407, 346, 341, 359, 252, 450, 19, 502, 339, 32, 524, 408, 454, 76, 378, 261, 120, 472, 51, 516, 189, 112, 93, 63, 438, 502, 9, 300, 490, 271, 324, 249, 445, 426, 305, 523, 172, 61, 312, 346, 95, 58, 250, 279, 111, 354, 20, 116, 48, 511, 330, 394, 501, 533, 270, 295, 253, 278, 458, 287, 440, 257, 12, 67, 245, 275, 500, 27, 309, 392, 88, 58, 159, 243, 421, 131, 399, 352, 489, 84, 482, 431, 251, 516, 478, 467, 285, 450, 155, 10];
LatestEnd=[360, 574, 352, 517, 402, 496, 443, 57, 551, 591, 486, 499, 485, 476, 300, 494, 31, 587, 344, 134, 670, 457, 516, 144, 452, 320, 284, 553, 100, 598, 211, 124, 135, 136, 461, 603, 143, 413, 631, 358, 328, 382, 458, 533, 396, 572, 250, 90, 438, 499, 167, 203, 303, 376, 135, 439, 61, 169, 158, 565, 438, 476, 531, 558, 296, 436, 369, 332, 595, 322, 548, 268, 141, 120, 265, 360, 562, 66, 357, 563, 131, 96, 211, 305, 479, 213, 553, 377, 527, 124, 583, 492, 311, 569, 590, 554, 366, 503, 163, 108];
MinTime=[79, 66, 88, 90, 85, 34, 99, 23, 28, 78, 47, 94, 87, 84, 26, 23, 11, 75, 3, 82, 100, 28, 53, 50, 67, 33, 95, 60, 25, 69, 12, 9, 23, 61, 17, 96, 92, 73, 98, 87, 3, 77, 13, 84, 89, 40, 69, 22, 82, 90, 44, 89, 49, 86, 16, 57, 39, 34, 69, 28, 73, 61, 19, 21, 23, 76, 91, 39, 90, 34, 61, 7, 65, 38, 12, 85, 61, 26, 40, 90, 22, 29, 28, 54, 47, 45, 93, 18, 31, 31, 82, 36, 35, 50, 65, 62, 79, 49, 5, 58];
MaxTime=[82, 85, 100, 93, 92, 81, 100, 99, 81, 94, 60, 96, 94, 91, 59, 83, 54, 91, 39, 88, 100, 37, 54, 52, 81, 85, 100, 81, 44, 80, 52, 45, 66, 80, 65, 100, 95, 88, 100, 98, 79, 96, 52, 87, 91, 86, 83, 64, 98, 100, 44, 90, 71, 93, 18, 76, 92, 56, 77, 84, 83, 99, 34, 58, 37, 78, 99, 40, 97, 80, 73, 87, 99, 90, 90, 93, 65, 30, 97, 93, 52, 99, 62, 77, 64, 45, 97, 50, 83, 47, 89, 58, 49, 89, 76, 99, 80, 60, 14, 65];
JobSize=[20, 9, 17, 1, 2, 17, 9, 4, 2, 4, 1, 5, 4, 5, 19, 10, 6, 6, 2, 4, 17, 3, 10, 7, 3, 19, 20, 20, 1, 7, 4, 19, 20, 14, 4, 7, 12, 4, 4, 19, 3, 1, 15, 8, 18, 13, 19, 15, 11, 4, 12, 15, 12, 5, 6, 1, 18, 20, 14, 5, 14, 1, 12, 4, 18, 8, 5, 11, 4, 17, 16, 4, 13, 1, 9, 15, 17, 3, 18, 7, 13, 5, 19, 14, 6, 13, 17, 9, 17, 17, 12, 15, 12, 4, 19, 17, 20, 19, 11, 7];
Attribute=[2, 1, 2, 2, 1, 1, 1, 1, 1, 2, 2, 1, 1, 2, 1, 2, 1, 2, 2, 2, 2, 2, 1, 2, 1, 2, 1, 2, 2, 1, 2, 1, 1, 2, 2, 2, 2, 2, 2, 1, 2, 2, 2, 1, 1, 2, 1, 1, 2, 1, 1, 2, 2, 1, 2, 2, 1, 2, 1, 2, 2, 2, 2, 2, 2, 2, 1, 2, 1, 2, 1, 1, 2, 1, 1, 2, 1, 2, 2, 2, 1, 1, 1, 1, 1, 2, 2, 2, 2, 2, 1, 1, 2, 2, 2, 2, 1, 2, 1, 2];

upper_bound_integer_objective=3969000;
mult_factor_total_runtime=28;
mult_factor_finished_toolate=37800;
mult_factor_total_setuptimes=0;
mult_factor_total_setupcosts=18;
running_time_bound=5361;
min_duration=3;
max_duration=100;
max_setup_time=18;
max_setup_cost=21;
